language Essence 1.3

letting course_load be
        function(1 --> 24, 2 --> 8, 3 --> 6, 4 --> 16, 5 --> 14, 6 --> 13, 7 --> 4, 8 --> 2, 9 --> 6, 10 --> 17,
                 11 --> 4, 12 --> 18, 13 --> 20, 14 --> 24, 15 --> 15, 16 --> 19, 17 --> 21, 18 --> 14, 19 --> 16,
                 20 --> 11, 21 --> 18, 22 --> 9, 23 --> 14, 24 --> 14, 25 --> 20, 26 --> 13, 27 --> 6, 28 --> 10,
                 29 --> 6, 30 --> 22, 31 --> 1, 32 --> 12, 33 --> 24, 34 --> 3, 35 --> 13, 36 --> 6, 37 --> 3,
                 38 --> 16, 39 --> 16, 40 --> 22, 41 --> 11)
letting courses_per_period_lb be 1
letting courses_per_period_ub be 21
letting load_per_period_lb be 33
letting load_per_period_ub be 34
letting n_courses be 41
letting n_periods be 16
letting prerequisite be
        relation((29, 1), (29, 4), (29, 5), (29, 6), (29, 7), (29, 8), (29, 9), (29, 10), (29, 11), (29, 12), (29, 13),
                 (29, 14), (29, 15), (29, 17), (29, 18), (29, 19), (29, 20), (30, 1), (30, 2), (30, 3), (30, 4),
                 (30, 5), (30, 6), (30, 7), (30, 8), (30, 9), (30, 10), (30, 11), (30, 12), (30, 14), (30, 15),
                 (30, 16), (30, 17), (30, 18), (30, 19), (30, 20), (31, 1), (31, 2), (31, 3), (31, 4), (31, 5), (31, 7),
                 (31, 8), (31, 9), (31, 10), (31, 11), (31, 12), (31, 13), (31, 14), (31, 15), (31, 16), (31, 17),
                 (31, 18), (31, 19), (31, 20), (32, 1), (32, 2), (32, 3), (32, 4), (32, 5), (32, 7), (32, 9), (32, 10),
                 (32, 11), (32, 12), (32, 13), (32, 14), (32, 15), (32, 16), (32, 17), (32, 18), (32, 19), (32, 20),
                 (33, 1), (33, 2), (33, 3), (33, 4), (33, 5), (33, 6), (33, 7), (33, 8), (33, 9), (33, 10), (33, 11),
                 (33, 12), (33, 13), (33, 14), (33, 15), (33, 16), (33, 17), (33, 18), (33, 19), (33, 20), (34, 1),
                 (34, 2), (34, 3), (34, 4), (34, 5), (34, 6), (34, 7), (34, 8), (34, 9), (34, 12), (34, 13), (34, 14),
                 (34, 15), (34, 16), (34, 17), (34, 19), (34, 20), (35, 1), (35, 3), (35, 4), (35, 5), (35, 6), (35, 7),
                 (35, 8), (35, 9), (35, 10), (35, 11), (35, 12), (35, 13), (35, 14), (35, 15), (35, 16), (35, 17),
                 (35, 18), (35, 19), (35, 20), (36, 1), (36, 2), (36, 3), (36, 4), (36, 5), (36, 7), (36, 8), (36, 9),
                 (36, 10), (36, 11), (36, 12), (36, 13), (36, 14), (36, 15), (36, 16), (36, 17), (36, 18), (36, 19),
                 (37, 1), (37, 2), (37, 3), (37, 4), (37, 5), (37, 6), (37, 7), (37, 8), (37, 9), (37, 10), (37, 11),
                 (37, 12), (37, 13), (37, 14), (37, 15), (37, 16), (37, 17), (37, 18), (37, 19), (37, 20))
$ Visualisation for prerequisite
$ 29  1
$ 29  4
$ 29  5
$ 29  6
$ 29  7
$ 29  8
$ 29  9
$ 29 10
$ 29 11
$ 29 12
$ 29 13
$ 29 14
$ 29 15
$ 29 17
$ 29 18
$ 29 19
$ 29 20
$ 30  1
$ 30  2
$ 30  3
$ 30  4
$ 30  5
$ 30  6
$ 30  7
$ 30  8
$ 30  9
$ 30 10
$ 30 11
$ 30 12
$ 30 14
$ 30 15
$ 30 16
$ 30 17
$ 30 18
$ 30 19
$ 30 20
$ 31  1
$ 31  2
$ 31  3
$ 31  4
$ 31  5
$ 31  7
$ 31  8
$ 31  9
$ 31 10
$ 31 11
$ 31 12
$ 31 13
$ 31 14
$ 31 15
$ 31 16
$ 31 17
$ 31 18
$ 31 19
$ 31 20
$ 32  1
$ 32  2
$ 32  3
$ 32  4
$ 32  5
$ 32  7
$ 32  9
$ 32 10
$ 32 11
$ 32 12
$ 32 13
$ 32 14
$ 32 15
$ 32 16
$ 32 17
$ 32 18
$ 32 19
$ 32 20
$ 33  1
$ 33  2
$ 33  3
$ 33  4
$ 33  5
$ 33  6
$ 33  7
$ 33  8
$ 33  9
$ 33 10
$ 33 11
$ 33 12
$ 33 13
$ 33 14
$ 33 15
$ 33 16
$ 33 17
$ 33 18
$ 33 19
$ 33 20
$ 34  1
$ 34  2
$ 34  3
$ 34  4
$ 34  5
$ 34  6
$ 34  7
$ 34  8
$ 34  9
$ 34 12
$ 34 13
$ 34 14
$ 34 15
$ 34 16
$ 34 17
$ 34 19
$ 34 20
$ 35  1
$ 35  3
$ 35  4
$ 35  5
$ 35  6
$ 35  7
$ 35  8
$ 35  9
$ 35 10
$ 35 11
$ 35 12
$ 35 13
$ 35 14
$ 35 15
$ 35 16
$ 35 17
$ 35 18
$ 35 19
$ 35 20
$ 36  1
$ 36  2
$ 36  3
$ 36  4
$ 36  5
$ 36  7
$ 36  8
$ 36  9
$ 36 10
$ 36 11
$ 36 12
$ 36 13
$ 36 14
$ 36 15
$ 36 16
$ 36 17
$ 36 18
$ 36 19
$ 37  1
$ 37  2
$ 37  3
$ 37  4
$ 37  5
$ 37  6
$ 37  7
$ 37  8
$ 37  9
$ 37 10
$ 37 11
$ 37 12
$ 37 13
$ 37 14
$ 37 15
$ 37 16
$ 37 17
$ 37 18
$ 37 19
$ 37 20

